(set-info :source |printed by MathSAT|)
(declare-fun |.x{125}| () Int)
(declare-fun |.y{11}| () Int)
(declare-fun |.y{8}| () Int)
(declare-fun |.y{12}| () Int)
(declare-fun |.x{126}| () (Array Int Int))
(declare-fun |.y{13}| () (Array Int Int))
(declare-fun |.x{124}| () Int)
(declare-fun |.y{14}| () Int)
(declare-fun |.x{121}| () Int)
(declare-fun |.y{15}| () Int)
(declare-fun |.y{9}| () (Array Int Int))
(declare-fun |.y{16}| () (Array Int Int))
(declare-fun |.y{10}| () Int)
(declare-fun |.y{17}| () Int)
(declare-fun |.loc{4}| () Bool)
(declare-fun |.loc{7}| () Bool)
(declare-fun |.loc{5}| () Bool)
(declare-fun |.loc{8}| () Bool)
(declare-fun |.loc{6}| () Bool)
(declare-fun |.loc{9}| () Bool)
(declare-fun |.x{70}| () Int)
(declare-fun |.x{127}| () Int)
(define-fun .def_22 () Bool (! |.loc{4}| :next |.loc{7}|))
(define-fun .def_77 () Bool (not .def_22))
(define-fun .def_24 () Bool (! |.loc{5}| :next |.loc{8}|))
(define-fun .def_34 () Bool (not .def_24))
(define-fun .def_194 () Bool (and .def_34 .def_77))
(define-fun .def_26 () Bool (! |.loc{6}| :next |.loc{9}|))
(define-fun .def_192 () Bool (not .def_26))
(define-fun .def_195 () Bool (! (and .def_192 .def_194) :init true))
(define-fun .def_12 () (Array Int Int) (! |.x{126}| :next |.y{13}|))
(define-fun .def_101 () Int (select .def_12 |.x{127}|))
(define-fun .def_161 () Bool (= .def_101 42))
(define-fun .def_182 () Bool (not .def_161))
(define-fun .def_14 () Int (! |.x{124}| :next |.y{14}|))
(define-fun .def_16 () Int (! |.x{121}| :next |.y{15}|))
(define-fun .def_153 () Bool (<= .def_16 .def_14))
(define-fun .def_154 () Bool (not .def_153))
(define-fun .def_90 () Int (* (- 1) |.x{127}|))
(define-fun .def_93 () Int (+ .def_14 .def_90))
(define-fun .def_8 () Int (! |.x{125}| :next |.y{11}|))
(define-fun .def_94 () Int (+ .def_8 .def_93))
(define-fun .def_95 () Bool (= .def_94 0))
(define-fun .def_176 () Bool (and .def_95 .def_154))
(define-fun .def_177 () Bool (and |.loc{9}| .def_176))
(define-fun .def_99 () Bool (not |.loc{7}|))
(define-fun .def_178 () Bool (and .def_99 .def_177))
(define-fun .def_32 () Bool (not |.loc{8}|))
(define-fun .def_179 () Bool (and .def_32 .def_178))
(define-fun .def_108 () Bool (<= |.x{127}| 0))
(define-fun .def_109 () Bool (not .def_108))
(define-fun .def_39 () Bool (<= .def_8 0))
(define-fun .def_110 () Bool (or .def_39 .def_109))
(define-fun .def_180 () Bool (and .def_110 .def_179))
(define-fun .def_40 () Bool (not .def_39))
(define-fun .def_181 () Bool (and .def_40 .def_180))
(define-fun .def_183 () Bool (and .def_181 .def_182))
(define-fun .def_184 () Bool (and .def_22 .def_183))
(define-fun .def_20 () Int (! |.y{10}| :next |.y{17}|))
(define-fun .def_174 () Bool (= |.y{15}| .def_20))
(define-fun .def_18 () (Array Int Int) (! |.y{9}| :next |.y{16}|))
(define-fun .def_172 () Bool (= |.y{13}| .def_18))
(define-fun .def_170 () Bool (= |.y{11}| .def_16))
(define-fun .def_29 () Bool (not |.loc{9}|))
(define-fun .def_165 () Bool (and |.loc{7}| .def_29))
(define-fun .def_166 () Bool (and |.loc{8}| .def_165))
(define-fun .def_167 () Bool (and .def_77 .def_166))
(define-fun .def_140 () Bool (= |.y{14}| 0))
(define-fun .def_168 () Bool (and .def_140 .def_167))
(define-fun .def_105 () Bool (<= .def_20 .def_14))
(define-fun .def_169 () Bool (and .def_105 .def_168))
(define-fun .def_171 () Bool (and .def_169 .def_170))
(define-fun .def_173 () Bool (and .def_171 .def_172))
(define-fun .def_175 () Bool (and .def_173 .def_174))
(define-fun .def_185 () Bool (or .def_175 .def_184))
(define-fun .def_96 () Bool (and .def_29 .def_95))
(define-fun .def_151 () Bool (and |.loc{7}| .def_96))
(define-fun .def_152 () Bool (and |.loc{8}| .def_151))
(define-fun .def_155 () Bool (and .def_152 .def_154))
(define-fun .def_156 () Bool (and .def_110 .def_155))
(define-fun .def_112 () Int (* (- 1) |.y{14}|))
(define-fun .def_113 () Int (+ .def_14 .def_112))
(define-fun .def_114 () Bool (= .def_113 (- 1)))
(define-fun .def_157 () Bool (and .def_114 .def_156))
(define-fun .def_158 () Bool (and .def_40 .def_157))
(define-fun .def_42 () Bool (= .def_8 |.y{11}|))
(define-fun .def_159 () Bool (and .def_42 .def_158))
(define-fun .def_118 () Bool (= .def_12 |.y{13}|))
(define-fun .def_160 () Bool (and .def_118 .def_159))
(define-fun .def_162 () Bool (and .def_160 .def_161))
(define-fun .def_49 () Bool (= .def_16 |.y{15}|))
(define-fun .def_163 () Bool (and .def_49 .def_162))
(define-fun .def_164 () Bool (and .def_22 .def_163))
(define-fun .def_186 () Bool (or .def_164 .def_185))
(define-fun .def_187 () Bool (and .def_24 .def_186))
(define-fun .def_148 () Bool (= .def_16 |.y{17}|))
(define-fun .def_146 () Bool (= .def_14 |.y{15}|))
(define-fun .def_137 () Bool (and |.loc{8}| .def_29))
(define-fun .def_138 () Bool (and .def_99 .def_137))
(define-fun .def_139 () Bool (and .def_34 .def_138))
(define-fun .def_141 () Bool (and .def_139 .def_140))
(define-fun .def_36 () Bool (= .def_18 |.y{16}|))
(define-fun .def_142 () Bool (and .def_36 .def_141))
(define-fun .def_10 () Int (! |.y{8}| :next |.y{12}|))
(define-fun .def_57 () Bool (<= .def_16 .def_10))
(define-fun .def_143 () Bool (and .def_57 .def_142))
(define-fun .def_144 () Bool (and .def_42 .def_143))
(define-fun .def_145 () Bool (and .def_118 .def_144))
(define-fun .def_147 () Bool (and .def_145 .def_146))
(define-fun .def_149 () Bool (and .def_147 .def_148))
(define-fun .def_150 () Bool (and .def_22 .def_149))
(define-fun .def_188 () Bool (or .def_150 .def_187))
(define-fun .def_135 () Bool (= .def_20 |.y{17}|))
(define-fun .def_129 () Bool (<= .def_16 0))
(define-fun .def_133 () Bool (not .def_129))
(define-fun .def_69 () Bool (<= |.x{70}| 0))
(define-fun .def_70 () Bool (not .def_69))
(define-fun .def_130 () Bool (or .def_70 .def_129))
(define-fun .def_64 () Int (* (- 1) |.x{70}|))
(define-fun .def_124 () Int (+ .def_16 .def_64))
(define-fun .def_125 () Int (+ .def_14 .def_124))
(define-fun .def_126 () Bool (= .def_125 0))
(define-fun .def_106 () Bool (not .def_105))
(define-fun .def_102 () (Array Int Int) (store .def_18 |.x{70}| .def_101))
(define-fun .def_103 () Bool (= |.y{16}| .def_102))
(define-fun .def_97 () Bool (and |.loc{8}| .def_96))
(define-fun .def_98 () Bool (and .def_77 .def_97))
(define-fun .def_100 () Bool (and .def_98 .def_99))
(define-fun .def_104 () Bool (and .def_100 .def_103))
(define-fun .def_107 () Bool (and .def_104 .def_106))
(define-fun .def_111 () Bool (and .def_107 .def_110))
(define-fun .def_115 () Bool (and .def_111 .def_114))
(define-fun .def_116 () Bool (and .def_40 .def_115))
(define-fun .def_117 () Bool (and .def_42 .def_116))
(define-fun .def_119 () Bool (and .def_117 .def_118))
(define-fun .def_127 () Bool (and .def_119 .def_126))
(define-fun .def_128 () Bool (and .def_49 .def_127))
(define-fun .def_131 () Bool (and .def_128 .def_130))
(define-fun .def_132 () Bool (and .def_24 .def_131))
(define-fun .def_134 () Bool (and .def_132 .def_133))
(define-fun .def_136 () Bool (and .def_134 .def_135))
(define-fun .def_189 () Bool (or .def_136 .def_188))
(define-fun .def_86 () Bool (<= |.y{15}| 0))
(define-fun .def_87 () Bool (not .def_86))
(define-fun .def_83 () Bool (<= |.y{11}| 0))
(define-fun .def_84 () Bool (not .def_83))
(define-fun .def_81 () Bool (= |.y{12}| 0))
(define-fun .def_73 () Bool (<= |.y{14}| 0))
(define-fun .def_74 () Bool (not .def_73))
(define-fun .def_75 () Bool (and .def_29 .def_74))
(define-fun .def_76 () Bool (and |.loc{7}| .def_75))
(define-fun .def_78 () Bool (and .def_76 .def_77))
(define-fun .def_79 () Bool (and .def_32 .def_78))
(define-fun .def_80 () Bool (and .def_34 .def_79))
(define-fun .def_82 () Bool (and .def_80 .def_81))
(define-fun .def_85 () Bool (and .def_82 .def_84))
(define-fun .def_88 () Bool (and .def_85 .def_87))
(define-fun .def_190 () Bool (or .def_88 .def_189))
(define-fun .def_71 () Bool (or .def_39 .def_70))
(define-fun .def_65 () Int (+ .def_10 .def_64))
(define-fun .def_66 () Int (+ .def_8 .def_65))
(define-fun .def_67 () Bool (= .def_66 0))
(define-fun .def_58 () Bool (not .def_57))
(define-fun .def_53 () (Array Int Int) (store .def_12 |.x{70}| 42))
(define-fun .def_54 () Bool (= |.y{13}| .def_53))
(define-fun .def_45 () Int (* (- 1) |.y{12}|))
(define-fun .def_46 () Int (+ .def_10 .def_45))
(define-fun .def_47 () Bool (= .def_46 (- 1)))
(define-fun .def_28 () Bool (= .def_14 |.y{14}|))
(define-fun .def_30 () Bool (and .def_28 .def_29))
(define-fun .def_31 () Bool (and |.loc{7}| .def_30))
(define-fun .def_33 () Bool (and .def_31 .def_32))
(define-fun .def_35 () Bool (and .def_33 .def_34))
(define-fun .def_37 () Bool (and .def_35 .def_36))
(define-fun .def_41 () Bool (and .def_37 .def_40))
(define-fun .def_43 () Bool (and .def_41 .def_42))
(define-fun .def_48 () Bool (and .def_43 .def_47))
(define-fun .def_50 () Bool (and .def_48 .def_49))
(define-fun .def_55 () Bool (and .def_50 .def_54))
(define-fun .def_56 () Bool (and .def_22 .def_55))
(define-fun .def_59 () Bool (and .def_56 .def_58))
(define-fun .def_68 () Bool (and .def_59 .def_67))
(define-fun .def_72 () Bool (and .def_68 .def_71))
(define-fun .def_191 () Bool (or .def_72 .def_190))
(define-fun .def_193 () Bool (! (and .def_191 .def_192) :trans true))
(define-fun .def_196 () Bool (and .def_26 .def_194))
(define-fun .def_197 () Bool (! (not .def_196) :invar-property 0))
(assert true)
